benchmarks/bfuzz0/19478247031795042198068520517563119.smt2
(set-logic QF_FP)
(declare-const x0 (_ FloatingPoint 11 53))
(declare-const x1 (_ FloatingPoint 11 53))
(declare-const x2 (_ FloatingPoint 11 53))
(declare-const x3 (_ FloatingPoint 11 53))
(declare-const x4 (_ FloatingPoint 11 53))
(declare-const x5 (_ FloatingPoint 11 53))
(declare-const x6 (_ FloatingPoint 11 53))
(assert (fp.lt (fp.neg (fp.add RNE x3 x1)) (fp.neg (fp.mul RNE x1 x6))))
(assert (fp.geq (fp.div RNE (fp.div RNE x5 x5) (fp.add RNE x4 x6)) (fp.sub RNE (fp.div RNE x6 x6) (fp.sub RNE x3 x1))))
(check-sat)
