db/data/19478247031795042198068520517563119.z3.out
-------------------
2500.122207735
